units           real

special_bonds   lj 0.0 0.0 0.5 0.5 coul 0.0 0.0 0.85 1.0
neigh_modify    delay 1 every 1 check yes
neighbor	2.5 bin

atom_style      fullExc
boundary        p p p
read_data       a-adn_entry.data nocoeff

bond_style      tableE spline 500
angle_style     tableE spline 501
dihedral_style  tableE spline 500
improper_style fourierE
pair_style      hybrid/overlay coul/cut 10.50 tableE linear 500
read_data       a-adn_coeffs.data add append

pair_coeff	* * coul/cut
velocity        all create 500.0 3 dist gaussian
fix             1 all shake 0.0001 20 0 b 1 4 13 15 17 18 22 26 27 31 33 35 37 42 44 47 51 53 55 57 60 62

fix             2 all nvt temp 350    350.0 100.0 tchain 1
thermo          1
thermo_style    custom time etotal pe ke temp emol epair ebond eangle edihed eimp  evdwl ecoul press vol
timestep        0.5

log             a-adn_cool.log
dump            1 all custom 1 mpyrpc_force.xyz id type x y z fx fy fz 

run             5

